; SLOAD TIMESTAMP PUSH cw_1 SWAP1 SWAP2 SWAP1 => TIMESTAMP SWAP1 SLOAD PUSH cw_1
(set-option :produce-proofs true)
; 
(set-info :status unknown)
(declare-fun storage_t ((_ BitVec 256) (_ BitVec 256) (_ BitVec 256) (_ BitVec 256) Int (_ BitVec 256)) (_ BitVec 256))
(declare-fun w_1 () (_ BitVec 256))
(declare-fun storage_s ((_ BitVec 256) (_ BitVec 256) (_ BitVec 256) (_ BitVec 256) Int (_ BitVec 256)) (_ BitVec 256))
(declare-fun exc_halt_t (Int) Bool)
(declare-fun exc_halt_s (Int) Bool)
(declare-fun stack_t ((_ BitVec 256) (_ BitVec 256) (_ BitVec 256) (_ BitVec 256) Int (_ BitVec 6)) (_ BitVec 256))
(declare-fun stack_s ((_ BitVec 256) (_ BitVec 256) (_ BitVec 256) (_ BitVec 256) Int (_ BitVec 6)) (_ BitVec 256))
(declare-fun sc_t (Int) (_ BitVec 6))
(declare-fun sc_s (Int) (_ BitVec 6))
(declare-fun used_gas_t ((_ BitVec 256) (_ BitVec 256) (_ BitVec 256) (_ BitVec 256) Int) Int)
(declare-fun used_gas_s ((_ BitVec 256) (_ BitVec 256) (_ BitVec 256) (_ BitVec 256) Int) Int)
(assert
 (exists ((x_0 (_ BitVec 256)) (x_SLOAD_0 (_ BitVec 256)) (x_TIMESTAMP (_ BitVec 256)) )(let (($x8373 (forall ((w (_ BitVec 256)) )(let ((?x7446 (storage_t x_0 x_SLOAD_0 w_1 x_TIMESTAMP 4 w)))
 (let ((?x2500 (storage_s x_0 x_SLOAD_0 w_1 x_TIMESTAMP 6 w)))
 (= ?x2500 ?x7446))))
 ))
 (let (($x7854 (exc_halt_t 4)))
 (let (($x772 (exc_halt_s 6)))
 (let (($x4404 (= $x772 $x7854)))
 (let (($x5939 (forall ((n (_ BitVec 6)) )(let ((?x4490 (stack_t x_0 x_SLOAD_0 w_1 x_TIMESTAMP 4 n)))
 (let ((?x120 (stack_s x_0 x_SLOAD_0 w_1 x_TIMESTAMP 6 n)))
 (let (($x11519 (= ?x120 ?x4490)))
 (or (bvsle (sc_t 4) n) $x11519)))))
 ))
 (let ((?x4818 (sc_t 4)))
 (let ((?x926 (sc_s 6)))
 (let (($x7899 (= ?x926 ?x4818)))
 (let ((?x4100 (used_gas_t x_0 x_SLOAD_0 w_1 x_TIMESTAMP 0)))
 (let ((?x8891 (used_gas_s x_0 x_SLOAD_0 w_1 x_TIMESTAMP 0)))
 (let (($x9420 (= ?x8891 ?x4100)))
 (let (($x1534 (forall ((w (_ BitVec 256)) )(let ((?x2889 (storage_t x_0 x_SLOAD_0 w_1 x_TIMESTAMP 0 w)))
 (let ((?x11409 (storage_s x_0 x_SLOAD_0 w_1 x_TIMESTAMP 0 w)))
 (= ?x11409 ?x2889))))
 ))
 (let (($x56 (exc_halt_t 0)))
 (let (($x57 (exc_halt_s 0)))
 (let (($x58 (= $x57 $x56)))
 (let (($x9110 (forall ((n (_ BitVec 6)) )(let ((?x1096 (stack_t x_0 x_SLOAD_0 w_1 x_TIMESTAMP 0 n)))
 (let ((?x9892 (stack_s x_0 x_SLOAD_0 w_1 x_TIMESTAMP 0 n)))
 (let (($x11493 (= ?x9892 ?x1096)))
 (let ((?x63 (sc_t 0)))
 (let (($x3382 (bvsle ?x63 n)))
 (or $x3382 $x11493)))))))
 ))
 (let ((?x63 (sc_t 0)))
 (let ((?x72 (sc_s 0)))
 (let (($x73 (= ?x72 ?x63)))
 (let (($x3614 (exc_halt_t 3)))
 (let (($x8797 (or $x3614 (not (= ((_ extract 6 6) (bvadd (_ bv1 7) (concat (_ bv0 1) (sc_t 3)))) (_ bv0 1))))))
 (let (($x6343 (forall ((w (_ BitVec 256)) )(let ((?x3834 (storage_t x_0 x_SLOAD_0 w_1 x_TIMESTAMP 3 w)))
 (let ((?x7446 (storage_t x_0 x_SLOAD_0 w_1 x_TIMESTAMP 4 w)))
 (= ?x7446 ?x3834))))
 ))
 (let (($x2484 (forall ((n (_ BitVec 6)) )(let ((?x8224 (stack_t x_0 x_SLOAD_0 w_1 x_TIMESTAMP 3 n)))
 (let ((?x4490 (stack_t x_0 x_SLOAD_0 w_1 x_TIMESTAMP 4 n)))
 (or (= ?x4490 ?x8224) (bvsle (sc_t 3) n)))))
 ))
 (let (($x2724 (= (used_gas_t x_0 x_SLOAD_0 w_1 x_TIMESTAMP 4) (+ 3 (used_gas_t x_0 x_SLOAD_0 w_1 x_TIMESTAMP 3)))))
 (let (($x1423 (= $x3614 (or (exc_halt_t 2) (not (bvsle (_ bv0 6) (bvadd (_ bv63 6) (sc_t 2))))))))
 (let (($x9405 (forall ((w (_ BitVec 256)) )(let ((?x4018 (storage_t x_0 x_SLOAD_0 w_1 x_TIMESTAMP 2 w)))
 (let ((?x3834 (storage_t x_0 x_SLOAD_0 w_1 x_TIMESTAMP 3 w)))
 (= ?x3834 ?x4018))))
 ))
 (let (($x7002 (forall ((n (_ BitVec 6)) )(let ((?x8717 (stack_t x_0 x_SLOAD_0 w_1 x_TIMESTAMP 2 n)))
 (let ((?x8224 (stack_t x_0 x_SLOAD_0 w_1 x_TIMESTAMP 3 n)))
 (or (= ?x8224 ?x8717) (bvsle (bvadd (_ bv63 6) (sc_t 2)) n)))))
 ))
 (let ((?x8424 (used_gas_t x_0 x_SLOAD_0 w_1 x_TIMESTAMP 3)))
 (let ((?x6158 (sc_t 2)))
 (let ((?x9406 (bvadd (_ bv63 6) ?x6158)))
 (let ((?x1252 (stack_t x_0 x_SLOAD_0 w_1 x_TIMESTAMP 2 ?x9406)))
 (let (($x2151 (= (stack_t x_0 x_SLOAD_0 w_1 x_TIMESTAMP 3 (bvadd (_ bv63 6) (sc_t 3))) (storage_t x_0 x_SLOAD_0 w_1 x_TIMESTAMP 2 ?x1252))))
 (let (($x1066 (exc_halt_t 2)))
 (let (($x6021 (= $x1066 (or (not (bvsle (_ bv0 6) (bvadd (_ bv62 6) (sc_t 1)))) (exc_halt_t 1)))))
 (let (($x10219 (forall ((w (_ BitVec 256)) )(let ((?x7993 (storage_t x_0 x_SLOAD_0 w_1 x_TIMESTAMP 1 w)))
 (let ((?x4018 (storage_t x_0 x_SLOAD_0 w_1 x_TIMESTAMP 2 w)))
 (= ?x4018 ?x7993))))
 ))
 (let (($x1412 (forall ((n (_ BitVec 6)) )(let ((?x8290 (stack_t x_0 x_SLOAD_0 w_1 x_TIMESTAMP 1 n)))
 (let ((?x8717 (stack_t x_0 x_SLOAD_0 w_1 x_TIMESTAMP 2 n)))
 (or (bvsle (bvadd (_ bv62 6) (sc_t 1)) n) (= ?x8717 ?x8290)))))
 ))
 (let ((?x11046 (used_gas_t x_0 x_SLOAD_0 w_1 x_TIMESTAMP 2)))
 (let (($x10393 (= (stack_t x_0 x_SLOAD_0 w_1 x_TIMESTAMP 2 (bvadd (_ bv62 6) ?x6158)) (stack_t x_0 x_SLOAD_0 w_1 x_TIMESTAMP 1 (bvadd (_ bv63 6) (sc_t 1))))))
 (let (($x9020 (= ?x1252 (stack_t x_0 x_SLOAD_0 w_1 x_TIMESTAMP 1 (bvadd (_ bv62 6) (sc_t 1))))))
 (let (($x8377 (exc_halt_t 1)))
 (let (($x14 (= $x8377 (or $x56 (not (= ((_ extract 6 6) (bvadd (_ bv1 7) (concat (_ bv0 1) ?x63))) (_ bv0 1)))))))
 (let (($x2478 (forall ((w (_ BitVec 256)) )(let ((?x2889 (storage_t x_0 x_SLOAD_0 w_1 x_TIMESTAMP 0 w)))
 (let ((?x7993 (storage_t x_0 x_SLOAD_0 w_1 x_TIMESTAMP 1 w)))
 (= ?x7993 ?x2889))))
 ))
 (let (($x5955 (forall ((n (_ BitVec 6)) )(let ((?x1096 (stack_t x_0 x_SLOAD_0 w_1 x_TIMESTAMP 0 n)))
 (let ((?x8290 (stack_t x_0 x_SLOAD_0 w_1 x_TIMESTAMP 1 n)))
 (let ((?x63 (sc_t 0)))
 (let (($x3382 (bvsle ?x63 n)))
 (or $x3382 (= ?x8290 ?x1096)))))))
 ))
 (let (($x7873 (= $x772 (or (not (bvsle (_ bv0 6) (bvadd (_ bv62 6) (sc_s 5)))) (exc_halt_s 5)))))
 (let (($x3825 (forall ((w (_ BitVec 256)) )(let ((?x6097 (storage_s x_0 x_SLOAD_0 w_1 x_TIMESTAMP 5 w)))
 (let ((?x2500 (storage_s x_0 x_SLOAD_0 w_1 x_TIMESTAMP 6 w)))
 (= ?x2500 ?x6097))))
 ))
 (let (($x7170 (forall ((n (_ BitVec 6)) )(let ((?x10711 (stack_s x_0 x_SLOAD_0 w_1 x_TIMESTAMP 5 n)))
 (let ((?x120 (stack_s x_0 x_SLOAD_0 w_1 x_TIMESTAMP 6 n)))
 (or (= ?x120 ?x10711) (bvsle (bvadd (_ bv62 6) (sc_s 5)) n)))))
 ))
 (let (($x3802 (= (used_gas_s x_0 x_SLOAD_0 w_1 x_TIMESTAMP 6) (+ 3 (used_gas_s x_0 x_SLOAD_0 w_1 x_TIMESTAMP 5)))))
 (let ((?x4775 (stack_s x_0 x_SLOAD_0 w_1 x_TIMESTAMP 5 (bvadd (_ bv63 6) (sc_s 5)))))
 (let ((?x4319 (sc_s 5)))
 (let ((?x2945 (bvadd (_ bv62 6) ?x4319)))
 (let ((?x8739 (stack_s x_0 x_SLOAD_0 w_1 x_TIMESTAMP 5 ?x2945)))
 (let (($x11317 (exc_halt_s 5)))
 (let (($x3871 (= $x11317 (or (not (bvsle (_ bv0 6) (bvadd (_ bv61 6) (sc_s 4)))) (exc_halt_s 4)))))
 (let (($x5710 (forall ((w (_ BitVec 256)) )(let ((?x1051 (storage_s x_0 x_SLOAD_0 w_1 x_TIMESTAMP 4 w)))
 (let ((?x6097 (storage_s x_0 x_SLOAD_0 w_1 x_TIMESTAMP 5 w)))
 (= ?x6097 ?x1051))))
 ))
 (let (($x262 (forall ((n (_ BitVec 6)) )(let ((?x8863 (stack_s x_0 x_SLOAD_0 w_1 x_TIMESTAMP 4 n)))
 (let ((?x10711 (stack_s x_0 x_SLOAD_0 w_1 x_TIMESTAMP 5 n)))
 (or (= ?x10711 ?x8863) (bvsle (bvadd (_ bv61 6) (sc_s 4)) n)))))
 ))
 (let ((?x5608 (used_gas_s x_0 x_SLOAD_0 w_1 x_TIMESTAMP 5)))
 (let ((?x1891 (stack_s x_0 x_SLOAD_0 w_1 x_TIMESTAMP 4 (bvadd (_ bv62 6) (sc_s 4)))))
 (let ((?x11336 (stack_s x_0 x_SLOAD_0 w_1 x_TIMESTAMP 4 (bvadd (_ bv63 6) (sc_s 4)))))
 (let (($x492 (= ?x4775 (stack_s x_0 x_SLOAD_0 w_1 x_TIMESTAMP 4 (bvadd (_ bv61 6) (sc_s 4))))))
 (let (($x7172 (exc_halt_s 4)))
 (let (($x10826 (= $x7172 (or (exc_halt_s 3) (not (bvsle (_ bv0 6) (bvadd (_ bv62 6) (sc_s 3))))))))
 (let (($x3027 (forall ((w (_ BitVec 256)) )(let ((?x2049 (storage_s x_0 x_SLOAD_0 w_1 x_TIMESTAMP 3 w)))
 (let ((?x1051 (storage_s x_0 x_SLOAD_0 w_1 x_TIMESTAMP 4 w)))
 (= ?x1051 ?x2049))))
 ))
 (let (($x10102 (forall ((n (_ BitVec 6)) )(let ((?x10806 (stack_s x_0 x_SLOAD_0 w_1 x_TIMESTAMP 3 n)))
 (let ((?x8863 (stack_s x_0 x_SLOAD_0 w_1 x_TIMESTAMP 4 n)))
 (or (= ?x8863 ?x10806) (bvsle (bvadd (_ bv62 6) (sc_s 3)) n)))))
 ))
 (let ((?x1947 (used_gas_s x_0 x_SLOAD_0 w_1 x_TIMESTAMP 4)))
 (let (($x973 (= ?x1891 (stack_s x_0 x_SLOAD_0 w_1 x_TIMESTAMP 3 (bvadd (_ bv63 6) (sc_s 3))))))
 (let (($x1585 (= ?x11336 (stack_s x_0 x_SLOAD_0 w_1 x_TIMESTAMP 3 (bvadd (_ bv62 6) (sc_s 3))))))
 (let (($x247 (exc_halt_s 2)))
 (let (($x6742 (or $x247 (not (= ((_ extract 6 6) (bvadd (_ bv1 7) (concat (_ bv0 1) (sc_s 2)))) (_ bv0 1))))))
 (let (($x292 (exc_halt_s 3)))
 (let (($x212 (forall ((w (_ BitVec 256)) )(let ((?x11489 (storage_s x_0 x_SLOAD_0 w_1 x_TIMESTAMP 2 w)))
 (let ((?x2049 (storage_s x_0 x_SLOAD_0 w_1 x_TIMESTAMP 3 w)))
 (= ?x2049 ?x11489))))
 ))
 (let (($x10391 (forall ((n (_ BitVec 6)) )(let ((?x10263 (stack_s x_0 x_SLOAD_0 w_1 x_TIMESTAMP 2 n)))
 (let ((?x10806 (stack_s x_0 x_SLOAD_0 w_1 x_TIMESTAMP 3 n)))
 (or (bvsle (sc_s 2) n) (= ?x10806 ?x10263)))))
 ))
 (let ((?x4653 (used_gas_s x_0 x_SLOAD_0 w_1 x_TIMESTAMP 3)))
 (let (($x189 (exc_halt_s 1)))
 (let (($x3318 (or $x189 (not (= ((_ extract 6 6) (bvadd (_ bv1 7) (concat (_ bv0 1) (sc_s 1)))) (_ bv0 1))))))
 (let (($x3509 (forall ((w (_ BitVec 256)) )(let ((?x6347 (storage_s x_0 x_SLOAD_0 w_1 x_TIMESTAMP 1 w)))
 (let ((?x11489 (storage_s x_0 x_SLOAD_0 w_1 x_TIMESTAMP 2 w)))
 (= ?x11489 ?x6347))))
 ))
 (let (($x2114 (forall ((n (_ BitVec 6)) )(let ((?x3562 (stack_s x_0 x_SLOAD_0 w_1 x_TIMESTAMP 1 n)))
 (let ((?x10263 (stack_s x_0 x_SLOAD_0 w_1 x_TIMESTAMP 2 n)))
 (or (bvsle (sc_s 1) n) (= ?x10263 ?x3562)))))
 ))
 (let ((?x2543 (used_gas_s x_0 x_SLOAD_0 w_1 x_TIMESTAMP 2)))
 (let (($x7589 (forall ((w (_ BitVec 256)) )(let ((?x11409 (storage_s x_0 x_SLOAD_0 w_1 x_TIMESTAMP 0 w)))
 (let ((?x6347 (storage_s x_0 x_SLOAD_0 w_1 x_TIMESTAMP 1 w)))
 (= ?x6347 ?x11409))))
 ))
 (let (($x4068 (forall ((n (_ BitVec 6)) )(let ((?x9892 (stack_s x_0 x_SLOAD_0 w_1 x_TIMESTAMP 0 n)))
 (let ((?x3562 (stack_s x_0 x_SLOAD_0 w_1 x_TIMESTAMP 1 n)))
 (or (bvsle (bvadd (_ bv63 6) (sc_s 0)) n) (= ?x3562 ?x9892)))))
 ))
 (let ((?x6311 (storage_s x_0 x_SLOAD_0 w_1 x_TIMESTAMP 0 (stack_s x_0 x_SLOAD_0 w_1 x_TIMESTAMP 0 (bvadd (_ bv63 6) ?x72)))))
 (let (($x613 (= (stack_s x_0 x_SLOAD_0 w_1 x_TIMESTAMP 1 (bvadd (_ bv63 6) (sc_s 1))) ?x6311)))
 (let (($x1172 (forall ((w (_ BitVec 256)) )(let (($x1671 (= w (stack_s x_0 x_SLOAD_0 w_1 x_TIMESTAMP 0 (bvadd (_ bv63 6) (sc_s 0))))))
 (let ((?x11409 (storage_s x_0 x_SLOAD_0 w_1 x_TIMESTAMP 0 w)))
 (= ?x11409 (ite $x1671 x_SLOAD_0 (_ bv0 256))))))
 ))
 (let (($x8376 (= ?x8891 0)))
 (let (($x10964 (= (stack_s x_0 x_SLOAD_0 w_1 x_TIMESTAMP 0 (_ bv0 6)) x_0)))
 (let (($x7315 (= ?x72 (_ bv1 6))))
 (and $x7315 $x10964 (not $x57) $x8376 $x1172 $x613 (= (used_gas_s x_0 x_SLOAD_0 w_1 x_TIMESTAMP 1) (+ 200 ?x8891)) (= (sc_s 1) ?x72) $x4068 $x7589 (= $x189 (or $x57 (not (bvsle (_ bv0 6) (bvadd (_ bv63 6) ?x72))))) (= (stack_s x_0 x_SLOAD_0 w_1 x_TIMESTAMP 2 (sc_s 1)) x_TIMESTAMP) (= ?x2543 (+ 2 (used_gas_s x_0 x_SLOAD_0 w_1 x_TIMESTAMP 1))) (= (sc_s 2) (bvadd (_ bv1 6) (sc_s 1))) $x2114 $x3509 (= $x247 $x3318) (= (stack_s x_0 x_SLOAD_0 w_1 x_TIMESTAMP 3 (sc_s 2)) w_1) (= ?x4653 (+ 3 ?x2543)) (= (sc_s 3) (bvadd (_ bv1 6) (sc_s 2))) $x10391 $x212 (= $x292 $x6742) $x1585 $x973 (= ?x1947 (+ 3 ?x4653)) (= (sc_s 4) (sc_s 3)) $x10102 $x3027 $x10826 $x492 (= (stack_s x_0 x_SLOAD_0 w_1 x_TIMESTAMP 5 (bvadd (_ bv61 6) ?x4319)) ?x11336) (= ?x8739 ?x1891) (= ?x5608 (+ 3 ?x1947)) (= ?x4319 (sc_s 4)) $x262 $x5710 $x3871 (= (stack_s x_0 x_SLOAD_0 w_1 x_TIMESTAMP 6 (bvadd (_ bv63 6) ?x926)) ?x8739) (= (stack_s x_0 x_SLOAD_0 w_1 x_TIMESTAMP 6 (bvadd (_ bv62 6) ?x926)) ?x4775) $x3802 (= ?x926 ?x4319) $x7170 $x3825 $x7873 (= (stack_t x_0 x_SLOAD_0 w_1 x_TIMESTAMP 1 ?x63) x_TIMESTAMP) (= (used_gas_t x_0 x_SLOAD_0 w_1 x_TIMESTAMP 1) (+ 2 ?x4100)) (= (sc_t 1) (bvadd (_ bv1 6) ?x63)) $x5955 $x2478 $x14 $x9020 $x10393 (= ?x11046 (+ 3 (used_gas_t x_0 x_SLOAD_0 w_1 x_TIMESTAMP 1))) (= ?x6158 (sc_t 1)) $x1412 $x10219 $x6021 $x2151 (= ?x8424 (+ 200 ?x11046)) (= (sc_t 3) ?x6158) $x7002 $x9405 $x1423 (= (stack_t x_0 x_SLOAD_0 w_1 x_TIMESTAMP 4 (sc_t 3)) w_1) $x2724 (= ?x4818 (bvadd (_ bv1 6) (sc_t 3))) $x2484 $x6343 (= $x7854 $x8797) $x73 $x9110 $x58 $x1534 $x9420 (not (and $x7899 $x5939 $x4404 $x8373)))))))))))))))))))))))))))))))))))))))))))))))))))))))))))))))))))))))))))))))))))))))))
 )
(check-sat)
(get-proof)
